sing20210630.00
TTAA 80001 48698
99008 27227 30505 00097 26429 18008 92782 21439 21013
85516 19456 25014 70160 09021 25007 50587 06323 09017
40758 15756 09010 30969 30365 11031 25095 41358 10031
20243 54537 11034 15420 69147 10535 10656 76159 09030
88999
77999=
